units       lj
atom_style  bond
special_bonds lj 1 1 1
neighbor   0.30 multi
comm_modify mode multi
neigh_modify every 1 delay 1  check yes one 10000 page 10000000000
bond_style fene
pair_style lj/expand 2.5
read_data XXXyourdataXXX.data

group to_delete type 1 2 #polymer atom type or whatever stuff you want to delete, like solvent 
delete_atoms group to_delete bond yes
# use these two lines to assign reference bead if needed
#group tip id 38401 38978
#set group tip type 5
write_data octa.data